35
7
0 7 8 9 11 12 14 17 18 19 23 24 25 26 27 28 29 30 31 32
1 9 12 13 15 17 18 20 22 23 24 25 27 30 33 34
2 7 9 19 22 24 26 30 31 33 34
3 7 8 10 15 17 20 22 25 27 29 30 31 34
4 7 11 16 19 21 25 28
5 17 18 21 22 23 24 25 33 34
6 13 19 28
